

******************************************************************************
This program contains Ipopt, a library for large-scale nonlinear optimization.
 Ipopt is released as open source code under the Eclipse Public License (EPL).
         For more information visit https://github.com/coin-or/Ipopt
******************************************************************************

This is Ipopt version 3.14.11, running with linear solver MUMPS 5.5.1.

Number of nonzeros in equality constraint Jacobian...:        2
Number of nonzeros in inequality constraint Jacobian.:        0
Number of nonzeros in Lagrangian Hessian.............:        3

Total number of variables............................:        3
                     variables with only lower bounds:        3
                variables with lower and upper bounds:        0
                     variables with only upper bounds:        0
Total number of equality constraints.................:        1
Total number of inequality constraints...............:        0
        inequality constraints with only lower bounds:        0
   inequality constraints with lower and upper bounds:        0
        inequality constraints with only upper bounds:        0

iter    objective    inf_pr   inf_du lg(mu)  ||d||  lg(rg) alpha_du alpha_pr  ls
   0  1.5000000e+01 0.00e+00 3.00e+00  -1.0 0.00e+00    -  0.00e+00 0.00e+00   0
   1  1.3892469e+01 2.47e-02 6.10e-01  -1.0 7.00e-01    -  6.19e-01 1.00e+00f  1
   2  1.3853653e+01 1.69e-03 2.44e-04  -1.7 3.05e-01    -  1.00e+00 1.00e+00h  1
   3  1.3857828e+01 1.46e-05 6.54e-05  -2.5 4.27e-03    -  1.00e+00 1.00e+00h  1
   4  1.3857864e+01 3.45e-08 4.11e-07  -3.8 6.78e-04    -  1.00e+00 1.00e+00h  1
   5  1.3857864e+01 7.79e-11 1.03e-09  -5.7 3.74e-05    -  1.00e+00 1.00e+00h  1
   6  1.3857864e+01 1.20e-14 1.42e-13  -8.6 4.61e-07    -  1.00e+00 1.00e+00h  1

Number of Iterations....: 6

                                   (scaled)                 (unscaled)
Objective...............:   1.3857864376269017e+01    1.3857864376269017e+01
Dual infeasibility......:   1.4209109721451541e-13    1.4209109721451541e-13
Constraint violation....:   1.1990408665951691e-14    1.1990408665951691e-14
Variable bound violation:   0.0000000000000000e+00    0.0000000000000000e+00
Complementarity.........:   2.5063291471012065e-09    2.5063291471012065e-09
Overall NLP error.......:   2.5063291471012065e-09    2.5063291471012065e-09


Number of objective function evaluations             = 7
Number of objective gradient evaluations             = 7
Number of equality constraint evaluations            = 7
Number of inequality constraint evaluations          = 0
Number of equality constraint Jacobian evaluations   = 7
Number of inequality constraint Jacobian evaluations = 0
Number of Lagrangian Hessian evaluations             = 6
Total seconds in IPOPT                               = 0.004

EXIT: Optimal Solution Found.
 
Ipopt 3.14.11: Optimal Solution Found
